data;


param FN:= 7;
param D:= 100;
param U_Original:=
         1         1       -2.311293e-01
         2         1        1.026524e+00
         3         1       -1.729273e+00
         4         1        1.435825e+00
         5         1       -1.990937e+00
         6         1        9.400287e-01
         7         1        2.979378e-01
         8         1       -1.159616e+00
         9         1        8.742040e-01
        10         1        8.218045e-01
        11         1       -1.220728e+00
        12         1        1.007104e+00
        13         1        1.253799e+00
        14         1        4.091384e-02
        15         1       -8.745046e-01
        16         1       -6.931056e-01
        17         1        6.757127e-01
        18         1        9.082711e-02
        19         1        6.012587e-01
        20         1       -1.811252e+00
        21         1       -1.750581e+00
        22         1       -9.004833e-02
        23         1       -1.802190e+00
        24         1       -2.340491e+00
        25         1       -5.366035e-02
        26         1        2.151181e-01
        27         1        1.491132e-01
        28         1       -2.043040e-01
        29         1        9.292305e-01
        30         1       -5.664269e-01
        31         1        7.009605e-01
        32         1        2.445044e-01
        33         1        1.303477e+00
        34         1        2.072351e+00
        35         1        5.555570e-01
        36         1       -1.098064e+00
        37         1       -8.180213e-01
        38         1       -7.718964e-01
        39         1       -4.237320e-03
        40         1        1.888796e-01
        41         1        3.112631e-01
        42         1        2.139082e+00
        43         1        6.749321e-01
        44         1       -5.140544e-01
        45         1       -1.415216e-01
        46         1       -1.276530e+00
        47         1        1.583972e+00
        48         1        4.012828e-01
        49         1       -2.328096e+00
        50         1        7.271617e-01
        51         1       -8.947416e-03
        52         1       -5.378257e-01
        53         1        5.850286e-01
        54         1        6.563490e-01
        55         1       -8.530508e-01
        56         1        4.706444e-01
        57         1        8.224643e-01
        58         1       -2.470520e-02
        59         1       -4.550185e-01
        60         1       -1.331826e+00
        61         1        2.282564e-01
        62         1       -5.551442e-01
        63         1        2.977704e+00
        64         1        2.601149e+00
        65         1       -1.440936e+00
        66         1        1.175208e+00
        67         1       -3.048281e-02
        68         1        3.279669e-01
        69         1       -2.704388e-01
        70         1        1.817090e-01
        71         1        1.213062e+00
        72         1       -1.763338e-01
        73         1        7.530500e-01
        74         1        7.950570e-01
        75         1       -8.824179e-01
        76         1        2.646859e-01
        77         1        1.770096e+00
        78         1        1.043249e+00
        79         1        4.380741e-02
        80         1        3.283023e-01
        81         1       -1.994724e+00
        82         1        4.759191e-01
        83         1        5.148997e-01
        84         1        1.151774e+00
        85         1        2.973606e-01
        86         1        2.690220e-01
        87         1       -1.336672e-01
        88         1        2.416830e-01
        89         1       -1.165503e+00
        90         1        1.948305e+00
        91         1       -2.974954e-01
        92         1       -1.287991e+00
        93         1       -1.479462e+00
        94         1       -1.112568e+00
        95         1       -1.201791e+00
        96         1        2.739736e-01
        97         1       -8.220446e-01
        98         1        1.742896e+00
        99         1        2.043821e-01
       100         1        3.781189e-01
         1         2        6.318114e-02
         2         2       -9.315070e-01
         3         2        1.275463e+00
         4         2       -6.663136e-01
         5         2       -9.170564e-01
         6         2        7.638853e-01
         7         2        8.558195e-01
         8         2        2.890215e-01
         9         2        7.120728e-01
        10         2        5.985292e-01
        11         2        1.356225e-01
        12         2       -1.278177e+00
        13         2        6.296532e-01
        14         2        1.008541e-01
        15         2        6.057484e-01
        16         2       -7.821533e-02
        17         2        9.300040e-03
        18         2        1.871236e-01
        19         2       -9.184979e-01
        20         2        5.003118e-01
        21         2        8.923735e-01
        22         2       -8.600709e-01
        23         2       -6.236008e-01
        24         2       -1.900952e+00
        25         2        8.275343e-01
        26         2        2.246104e-01
        27         2        1.139099e-01
        28         2       -7.901782e-01
        29         2       -4.635754e-01
        30         2        3.958056e-01
        31         2        1.586131e-01
        32         2        1.036650e+00
        33         2        1.878030e+00
        34         2       -5.257459e-01
        35         2        4.479755e-01
        36         2       -1.412625e+00
        37         2        1.155763e-01
        38         2       -1.474249e+00
        39         2        1.990139e+00
        40         2       -1.868652e+00
        41         2        1.799809e+00
        42         2        1.351289e+00
        43         2        4.862596e-01
        44         2       -8.525266e-01
        45         2       -2.205804e-01
        46         2        1.446577e+00
        47         2        1.439267e+00
        48         2       -5.590998e-01
        49         2        4.256485e-01
        50         2       -1.100690e+00
        51         2       -3.020017e-01
        52         2        1.316225e-01
        53         2        1.603177e+00
        54         2        1.653901e+00
        55         2       -1.201649e+00
        56         2        3.069069e-01
        57         2        6.861713e-01
        58         2       -2.216008e-01
        59         2       -2.018617e-01
        60         2       -1.620769e+00
        61         2       -6.527722e-01
        62         2       -3.985725e-01
        63         2       -3.473253e-01
        64         2        5.113475e-01
        65         2        9.502820e-01
        66         2       -1.103267e+00
        67         2        8.718826e-01
        68         2       -3.140865e-01
        69         2        1.301080e+00
        70         2        8.978796e-01
        71         2        4.039956e-01
        72         2       -9.988022e-01
        73         2       -4.621810e-02
        74         2        1.309142e+00
        75         2        1.205184e+00
        76         2       -1.186855e-01
        77         2        1.294998e+00
        78         2        1.913272e-01
        79         2       -1.369729e+00
        80         2        1.434863e-01
        81         2       -7.523662e-01
        82         2        1.293159e-01
        83         2        5.882916e-01
        84         2       -1.478192e+00
        85         2       -4.977530e-01
        86         2        8.724835e-01
        87         2       -4.987106e-01
        88         2        3.732101e-01
        89         2        5.276575e-01
        90         2       -4.382913e-01
        91         2        1.576749e+00
        92         2       -1.807758e-01
        93         2       -2.164853e+00
        94         2        5.911113e-01
        95         2        3.338750e-02
        96         2        8.423988e-01
        97         2        1.784041e-01
        98         2       -6.078374e-02
        99         2        5.931217e-01
       100         2       -5.529234e-01
         1         3       -1.630792e+00
         2         3       -6.531401e-02
         3         3       -1.614718e+00
         4         3       -1.407635e+00
         5         3       -1.097004e+00
         6         3       -1.007382e+00
         7         3       -9.446260e-01
         8         3       -1.003836e+00
         9         3        5.413796e-01
        10         3        1.551295e+00
        11         3        1.013476e-01
        12         3        1.046725e+00
        13         3        1.415551e+00
        14         3        8.150482e-01
        15         3       -1.665506e-01
        16         3       -1.289429e+00
        17         3       -1.058084e+00
        18         3        8.417607e-01
        19         3       -3.649571e-01
        20         3        1.490955e-01
        21         3       -8.073719e-01
        22         3        8.558573e-01
        23         3       -2.189066e-01
        24         3        7.031909e-01
        25         3        2.431834e-01
        26         3       -9.637880e-01
        27         3       -1.008185e+00
        28         3        5.363128e-01
        29         3        1.060564e+00
        30         3        2.637398e-01
        31         3       -2.074123e+00
        32         3        2.969877e-01
        33         3       -7.539699e-01
        34         3        8.227772e-01
        35         3       -1.307414e+00
        36         3        7.992881e-01
        37         3        4.805320e-01
        38         3       -8.701323e-02
        39         3       -6.359952e-01
        40         3        7.511955e-01
        41         3       -2.228380e-01
        42         3       -1.174973e+00
        43         3        1.283855e+00
        44         3        1.597931e+00
        45         3       -2.100691e-01
        46         3        4.576455e-01
        47         3       -3.941755e-01
        48         3        3.403221e-02
        49         3       -8.792784e-02
        50         3        4.413358e-01
        51         3       -5.448446e-01
        52         3       -1.438703e-01
        53         3       -1.119097e+00
        54         3        1.030370e+00
        55         3       -1.213673e+00
        56         3        2.638210e-01
        57         3        1.665250e+00
        58         3        2.158605e+00
        59         3        3.774217e-01
        60         3        9.193422e-01
        61         3       -6.137595e-01
        62         3        2.465423e-01
        63         3       -4.333340e-01
        64         3       -5.298547e-01
        65         3       -3.628793e-01
        66         3       -1.535089e-02
        67         3       -7.825888e-01
        68         3        3.534750e-01
        69         3       -1.704335e-01
        70         3       -2.208353e-01
        71         3       -4.385035e-01
        72         3        4.741269e-01
        73         3       -1.578613e+00
        74         3        3.964277e-01
        75         3        1.596746e+00
        76         3       -1.164179e+00
        77         3        1.137300e+00
        78         3        2.095365e+00
        79         3        1.337034e+00
        80         3        4.450403e-01
        81         3        7.836612e-01
        82         3        3.450651e-01
        83         3       -6.150541e-01
        84         3       -9.907713e-01
        85         3       -5.456813e-01
        86         3        1.766325e-01
        87         3       -1.705397e+00
        88         3        2.697303e-02
        89         3        1.931220e-01
        90         3       -1.368398e+00
        91         3        1.402000e+00
        92         3        7.100146e-01
        93         3        3.687645e-01
        94         3       -5.616642e-03
        95         3        2.584582e-01
        96         3       -8.564614e-01
        97         3        2.225324e-01
        98         3        7.710417e-01
        99         3       -1.860238e+00
       100         3        9.210003e-01
         1         4        3.781649e-01
         2         4       -1.538722e+00
         3         4       -4.430254e-02
         4         4        8.253975e-01
         5         4        6.341328e-03
         6         4        6.120202e-01
         7         4       -5.625901e-01
         8         4       -1.269179e+00
         9         4        2.663194e-01
        10         4        1.571183e-01
        11         4       -2.835035e-01
        12         4       -1.565146e-01
        13         4        1.208369e+00
        14         4        2.461526e-01
        15         4       -4.379512e-01
        16         4        3.093360e-01
        17         4        8.416966e-01
        18         4       -1.218343e+00
        19         4        1.525433e+00
        20         4        1.340634e+00
        21         4       -3.945310e-01
        22         4        3.476875e-01
        23         4       -2.411492e-01
        24         4        1.219455e+00
        25         4        1.233846e+00
        26         4        1.330275e-02
        27         4        1.413959e+00
        28         4       -5.060488e-01
        29         4        9.411806e-01
        30         4       -3.209156e-01
        31         4        3.670841e-01
        32         4        3.346825e-01
        33         4       -1.101634e+00
        34         4        2.006958e-01
        35         4       -1.214585e-01
        36         4       -2.193458e-02
        37         4       -1.131358e-01
        38         4        7.541498e-02
        39         4        2.056759e-01
        40         4       -5.015437e-01
        41         4       -5.867108e-01
        42         4        4.995889e-01
        43         4       -4.116034e-01
        44         4        2.317445e+00
        45         4       -1.305259e+00
        46         4       -8.778693e-01
        47         4        6.728658e-01
        48         4       -5.161023e-01
        49         4       -1.398655e+00
        50         4       -1.051814e+00
        51         4        9.824201e-01
        52         4        3.948128e-01
        53         4        2.755410e-01
        54         4        3.855343e-03
        55         4       -4.705343e-01
        56         4        1.029678e+00
        57         4        4.953010e-01
        58         4       -1.588299e+00
        59         4        1.597238e-01
        60         4        1.841742e+00
        61         4        1.787750e+00
        62         4        1.217688e+00
        63         4       -1.289296e+00
        64         4       -3.045810e-02
        65         4       -9.985410e-01
        66         4        2.780465e-02
        67         4       -1.028542e-01
        68         4        1.039550e-01
        69         4       -1.118825e-02
        70         4       -2.224790e-01
        71         4       -4.068427e-01
        72         4       -5.042379e-01
        73         4        1.132067e-01
        74         4        1.660526e+00
        75         4       -6.515758e-01
        76         4        8.779807e-01
        77         4        1.399054e+00
        78         4        8.203365e-01
        79         4        5.873263e-01
        80         4       -4.373731e-01
        81         4       -1.102093e+00
        82         4       -1.318736e-01
        83         4       -2.842067e-02
        84         4        1.013157e+00
        85         4        3.089078e+00
        86         4        2.282697e-01
        87         4        6.603505e-02
        88         4        1.233293e-01
        89         4        1.150642e+00
        90         4       -1.496107e-01
        91         4        2.449116e-01
        92         4        2.621524e-01
        93         4       -1.499698e+00
        94         4       -1.374470e+00
        95         4        2.456901e-01
        96         4        1.183516e+00
        97         4        1.119624e+00
        98         4       -1.245266e+00
        99         4       -2.941688e-01
       100         4       -4.822856e-01
         1         5       -5.591472e-01
         2         5       -1.581592e-01
         3         5       -8.010176e-01
         4         5       -5.841510e-01
         5         5        3.745552e-02
         6         5        3.782719e-01
         7         5       -1.223618e-01
         8         5        2.456708e+00
         9         5        3.647412e-01
        10         5       -1.847660e-01
        11         5        4.920902e-01
        12         5        7.099920e-01
        13         5        4.593030e-01
        14         5        1.092007e+00
        15         5        9.782923e-01
        16         5       -5.789911e-01
        17         5        4.448309e-01
        18         5        9.997858e-01
        19         5       -4.733358e-02
        20         5       -2.231783e-01
        21         5       -4.879892e-01
        22         5       -1.505366e+00
        23         5       -1.312373e+00
        24         5       -1.356041e+00
        25         5        1.806019e+00
        26         5       -1.262840e+00
        27         5       -3.906327e-01
        28         5       -1.234589e+00
        29         5       -1.565048e+00
        30         5        1.429618e+00
        31         5        2.549518e-01
        32         5       -1.407595e+00
        33         5       -8.389800e-01
        34         5       -4.871601e-01
        35         5        1.399056e-01
        36         5        7.070045e-01
        37         5       -7.417117e-01
        38         5       -6.222087e-01
        39         5       -1.392567e-01
        40         5       -4.272074e-01
        41         5        1.235495e+00
        42         5       -7.633284e-01
        43         5       -5.077989e-01
        44         5        2.921500e-01
        45         5       -2.594596e+00
        46         5        1.175870e+00
        47         5        1.769187e-01
        48         5        5.270967e-01
        49         5        4.870225e-01
        50         5       -3.025521e-01
        51         5        7.437996e-01
        52         5        3.537909e+00
        53         5       -1.189203e+00
        54         5       -2.192134e-01
        55         5       -2.131684e+00
        56         5        1.199789e+00
        57         5       -1.993917e-01
        58         5       -1.145531e+00
        59         5       -2.083126e-02
        60         5        7.119485e-01
        61         5       -2.226546e+00
        62         5        3.804262e-03
        63         5       -7.514753e-01
        64         5        3.920761e-01
        65         5        9.694623e-02
        66         5        1.938641e-01
        67         5       -1.590935e+00
        68         5        1.871302e+00
        69         5        8.202954e-01
        70         5        8.170511e-01
        71         5       -1.537636e+00
        72         5        2.438305e+00
        73         5       -5.107195e-01
        74         5        1.432076e-01
        75         5        1.830264e-01
        76         5        3.959643e-01
        77         5        5.571078e-01
        78         5        1.136313e+00
        79         5       -3.524712e-01
        80         5       -2.440652e-01
        81         5       -6.650059e-01
        82         5        1.357909e+00
        83         5        9.933284e-01
        84         5        4.890593e-01
        85         5        4.966344e-01
        86         5       -5.228154e-01
        87         5        2.854344e-01
        88         5       -4.260851e-01
        89         5        1.143806e+00
        90         5       -6.931450e-01
        91         5        6.013767e-02
        92         5       -5.702098e-01
        93         5        1.136004e+00
        94         5        2.760713e-01
        95         5       -8.698173e-01
        96         5        7.501644e-02
        97         5       -4.907716e-02
        98         5        2.153759e-01
        99         5       -6.294900e-02
       100         5        7.183424e-02
;
param X_Original:=
    1        1.797639e+00
    2        2.011462e+00
    3       -7.975973e-01
    4        1.271092e+00
    5        6.790732e-01
    6        2.443396e-01
    7       -4.195188e-02
    8        3.147337e-01
    9        1.884079e+00
   10        2.347223e+00
   11        4.472914e-01
   12        1.248230e-01
   13       -3.313813e-01
   14       -3.588159e-01
   15        2.177425e-01
   16       -2.321889e-01
   17       -7.065026e-01
   18        7.097641e-02
   19        4.371431e-01
   20       -3.604696e-01
   21        1.246728e+00
   22       -1.365193e+00
   23        7.759011e-01
   24        7.406435e-01
   25        4.880070e-01
   26       -1.028507e-01
   27       -4.615392e-01
   28        1.014813e+00
   29       -5.401944e-02
   30       -1.778227e+00
   31        1.767179e+00
   32       -5.630332e-01
   33        2.084889e+00
   34        1.211839e+00
   35        1.738548e-01
   36        6.160045e-01
   37       -4.495942e-01
   38       -1.093247e+00
   39       -3.746828e-01
   40       -6.449432e-01
   41        2.006820e+00
   42        1.192942e+00
   43        6.023962e-01
   44       -9.622622e-01
   45       -1.210566e+00
   46        7.530068e-01
   47        2.117043e+00
   48        6.869577e-01
   49       -1.204869e+00
   50       -1.503812e+00
   51       -1.448755e+00
   52       -3.522491e-01
   53        2.047194e+00
   54       -1.140014e+00
   55       -2.930757e-01
   56       -1.520663e+00
   57        1.478952e-01
   58        5.473665e-01
   59       -5.002201e-02
   60        6.950128e-02
   61       -3.927549e-01
   62       -1.075498e+00
   63        9.855981e-01
   64        3.374681e+00
   65        3.269124e-01
   66       -6.513582e-02
   67       -1.389964e+00
   68        1.538834e+00
   69       -1.380416e+00
   70        2.093852e+00
   71       -1.368482e+00
   72       -1.169243e+00
   73        1.755801e-01
   74        1.368043e+00
   75       -6.331173e-01
   76       -1.224607e+00
   77        8.702149e-01
   78       -1.473876e-01
   79        7.383937e-01
   80        4.646558e-01
   81        1.731941e+00
   82       -1.283047e+00
   83        1.236665e+00
   84       -1.514281e+00
   85       -1.406015e+00
   86        8.176282e-01
   87        1.434358e+00
   88        2.150997e+00
   89        3.661585e-01
   90       -8.909165e-01
   91        3.247862e-01
   92        1.332263e+00
   93        3.358416e-02
   94        1.176752e+00
   95       -2.371378e+00
   96       -1.532362e-01
   97       -5.145391e-02
   98       -3.403252e-02
   99       -1.434906e+00
  100        8.831008e-01
;
param outliervec_original :=
    1    1
    2    0
    3    1
    4    0
    5    1
    6    1
    7    1
    8    1
    9    1
   10    1
   11    1
   12    1
   13    0
   14    1
   15    1
   16    0
   17    1
   18    1
   19    1
   20    1
   21    1
   22    0
   23    1
   24    1
   25    1
   26    1
   27    1
   28    1
   29    1
   30    1
   31    0
   32    1
   33    1
   34    0
   35    1
   36    1
   37    1
   38    1
   39    1
   40    1
   41    1
   42    1
   43    0
   44    1
   45    1
   46    1
   47    0
   48    1
   49    1
   50    1
   51    1
   52    1
   53    0
   54    1
   55    0
   56    1
   57    1
   58    1
   59    1
   60    1
   61    1
   62    1
   63    1
   64    0
   65    1
   66    1
   67    1
   68    1
   69    1
   70    1
   71    1
   72    1
   73    1
   74    1
   75    0
   76    1
   77    1
   78    1
   79    1
   80    1
   81    1
   82    1
   83    0
   84    1
   85    1
   86    1
   87    1
   88    1
   89    1
   90    1
   91    1
   92    1
   93    1
   94    1
   95    1
   96    1
   97    1
   98    1
   99    1
  100    1
;
param d:= 57;
param r:=5;
param p:=0.860000;
param M:=1000;
param U:=
         1         1       -1.729273e+00
         2         1        9.400287e-01
         3         1        2.979378e-01
         4         1       -1.159616e+00
         5         1        8.742040e-01
         6         1        8.218045e-01
         7         1       -1.220728e+00
         8         1        1.007104e+00
         9         1       -8.745046e-01
        10         1        6.757127e-01
        11         1       -1.811252e+00
        12         1       -9.004833e-02
        13         1       -5.366035e-02
        14         1        2.151181e-01
        15         1        1.491132e-01
        16         1        9.292305e-01
        17         1        1.303477e+00
        18         1        2.072351e+00
        19         1        5.555570e-01
        20         1       -8.180213e-01
        21         1       -7.718964e-01
        22         1        1.888796e-01
        23         1        3.112631e-01
        24         1        2.139082e+00
        25         1        6.749321e-01
        26         1       -5.140544e-01
        27         1       -1.415216e-01
        28         1       -1.276530e+00
        29         1        1.583972e+00
        30         1        4.012828e-01
        31         1       -2.328096e+00
        32         1       -8.947416e-03
        33         1       -5.378257e-01
        34         1        5.850286e-01
        35         1       -2.470520e-02
        36         1       -4.550185e-01
        37         1       -5.551442e-01
        38         1        2.977704e+00
        39         1        2.601149e+00
        40         1       -1.440936e+00
        41         1        1.175208e+00
        42         1        3.279669e-01
        43         1        1.817090e-01
        44         1        7.530500e-01
        45         1        7.950570e-01
        46         1        2.646859e-01
        47         1        3.283023e-01
        48         1        5.148997e-01
        49         1        1.151774e+00
        50         1        2.973606e-01
        51         1        2.690220e-01
        52         1       -1.165503e+00
        53         1       -1.112568e+00
        54         1       -1.201791e+00
        55         1        2.739736e-01
        56         1       -8.220446e-01
        57         1        3.781189e-01
         1         2        1.275463e+00
         2         2        7.638853e-01
         3         2        8.558195e-01
         4         2        2.890215e-01
         5         2        7.120728e-01
         6         2        5.985292e-01
         7         2        1.356225e-01
         8         2       -1.278177e+00
         9         2        6.057484e-01
        10         2        9.300040e-03
        11         2        5.003118e-01
        12         2       -8.600709e-01
        13         2        8.275343e-01
        14         2        2.246104e-01
        15         2        1.139099e-01
        16         2       -4.635754e-01
        17         2        1.878030e+00
        18         2       -5.257459e-01
        19         2        4.479755e-01
        20         2        1.155763e-01
        21         2       -1.474249e+00
        22         2       -1.868652e+00
        23         2        1.799809e+00
        24         2        1.351289e+00
        25         2        4.862596e-01
        26         2       -8.525266e-01
        27         2       -2.205804e-01
        28         2        1.446577e+00
        29         2        1.439267e+00
        30         2       -5.590998e-01
        31         2        4.256485e-01
        32         2       -3.020017e-01
        33         2        1.316225e-01
        34         2        1.603177e+00
        35         2       -2.216008e-01
        36         2       -2.018617e-01
        37         2       -3.985725e-01
        38         2       -3.473253e-01
        39         2        5.113475e-01
        40         2        9.502820e-01
        41         2       -1.103267e+00
        42         2       -3.140865e-01
        43         2        8.978796e-01
        44         2       -4.621810e-02
        45         2        1.309142e+00
        46         2       -1.186855e-01
        47         2        1.434863e-01
        48         2        5.882916e-01
        49         2       -1.478192e+00
        50         2       -4.977530e-01
        51         2        8.724835e-01
        52         2        5.276575e-01
        53         2        5.911113e-01
        54         2        3.338750e-02
        55         2        8.423988e-01
        56         2        1.784041e-01
        57         2       -5.529234e-01
         1         3       -1.614718e+00
         2         3       -1.007382e+00
         3         3       -9.446260e-01
         4         3       -1.003836e+00
         5         3        5.413796e-01
         6         3        1.551295e+00
         7         3        1.013476e-01
         8         3        1.046725e+00
         9         3       -1.665506e-01
        10         3       -1.058084e+00
        11         3        1.490955e-01
        12         3        8.558573e-01
        13         3        2.431834e-01
        14         3       -9.637880e-01
        15         3       -1.008185e+00
        16         3        1.060564e+00
        17         3       -7.539699e-01
        18         3        8.227772e-01
        19         3       -1.307414e+00
        20         3        4.805320e-01
        21         3       -8.701323e-02
        22         3        7.511955e-01
        23         3       -2.228380e-01
        24         3       -1.174973e+00
        25         3        1.283855e+00
        26         3        1.597931e+00
        27         3       -2.100691e-01
        28         3        4.576455e-01
        29         3       -3.941755e-01
        30         3        3.403221e-02
        31         3       -8.792784e-02
        32         3       -5.448446e-01
        33         3       -1.438703e-01
        34         3       -1.119097e+00
        35         3        2.158605e+00
        36         3        3.774217e-01
        37         3        2.465423e-01
        38         3       -4.333340e-01
        39         3       -5.298547e-01
        40         3       -3.628793e-01
        41         3       -1.535089e-02
        42         3        3.534750e-01
        43         3       -2.208353e-01
        44         3       -1.578613e+00
        45         3        3.964277e-01
        46         3       -1.164179e+00
        47         3        4.450403e-01
        48         3       -6.150541e-01
        49         3       -9.907713e-01
        50         3       -5.456813e-01
        51         3        1.766325e-01
        52         3        1.931220e-01
        53         3       -5.616642e-03
        54         3        2.584582e-01
        55         3       -8.564614e-01
        56         3        2.225324e-01
        57         3        9.210003e-01
         1         4       -4.430254e-02
         2         4        6.120202e-01
         3         4       -5.625901e-01
         4         4       -1.269179e+00
         5         4        2.663194e-01
         6         4        1.571183e-01
         7         4       -2.835035e-01
         8         4       -1.565146e-01
         9         4       -4.379512e-01
        10         4        8.416966e-01
        11         4        1.340634e+00
        12         4        3.476875e-01
        13         4        1.233846e+00
        14         4        1.330275e-02
        15         4        1.413959e+00
        16         4        9.411806e-01
        17         4       -1.101634e+00
        18         4        2.006958e-01
        19         4       -1.214585e-01
        20         4       -1.131358e-01
        21         4        7.541498e-02
        22         4       -5.015437e-01
        23         4       -5.867108e-01
        24         4        4.995889e-01
        25         4       -4.116034e-01
        26         4        2.317445e+00
        27         4       -1.305259e+00
        28         4       -8.778693e-01
        29         4        6.728658e-01
        30         4       -5.161023e-01
        31         4       -1.398655e+00
        32         4        9.824201e-01
        33         4        3.948128e-01
        34         4        2.755410e-01
        35         4       -1.588299e+00
        36         4        1.597238e-01
        37         4        1.217688e+00
        38         4       -1.289296e+00
        39         4       -3.045810e-02
        40         4       -9.985410e-01
        41         4        2.780465e-02
        42         4        1.039550e-01
        43         4       -2.224790e-01
        44         4        1.132067e-01
        45         4        1.660526e+00
        46         4        8.779807e-01
        47         4       -4.373731e-01
        48         4       -2.842067e-02
        49         4        1.013157e+00
        50         4        3.089078e+00
        51         4        2.282697e-01
        52         4        1.150642e+00
        53         4       -1.374470e+00
        54         4        2.456901e-01
        55         4        1.183516e+00
        56         4        1.119624e+00
        57         4       -4.822856e-01
         1         5       -8.010176e-01
         2         5        3.782719e-01
         3         5       -1.223618e-01
         4         5        2.456708e+00
         5         5        3.647412e-01
         6         5       -1.847660e-01
         7         5        4.920902e-01
         8         5        7.099920e-01
         9         5        9.782923e-01
        10         5        4.448309e-01
        11         5       -2.231783e-01
        12         5       -1.505366e+00
        13         5        1.806019e+00
        14         5       -1.262840e+00
        15         5       -3.906327e-01
        16         5       -1.565048e+00
        17         5       -8.389800e-01
        18         5       -4.871601e-01
        19         5        1.399056e-01
        20         5       -7.417117e-01
        21         5       -6.222087e-01
        22         5       -4.272074e-01
        23         5        1.235495e+00
        24         5       -7.633284e-01
        25         5       -5.077989e-01
        26         5        2.921500e-01
        27         5       -2.594596e+00
        28         5        1.175870e+00
        29         5        1.769187e-01
        30         5        5.270967e-01
        31         5        4.870225e-01
        32         5        7.437996e-01
        33         5        3.537909e+00
        34         5       -1.189203e+00
        35         5       -1.145531e+00
        36         5       -2.083126e-02
        37         5        3.804262e-03
        38         5       -7.514753e-01
        39         5        3.920761e-01
        40         5        9.694623e-02
        41         5        1.938641e-01
        42         5        1.871302e+00
        43         5        8.170511e-01
        44         5       -5.107195e-01
        45         5        1.432076e-01
        46         5        3.959643e-01
        47         5       -2.440652e-01
        48         5        9.933284e-01
        49         5        4.890593e-01
        50         5        4.966344e-01
        51         5       -5.228154e-01
        52         5        1.143806e+00
        53         5        2.760713e-01
        54         5       -8.698173e-01
        55         5        7.501644e-02
        56         5       -4.907716e-02
        57         5        7.183424e-02
;

param theta:=
    1        1.054331e+00
    2        5.790110e-01
    3       -6.207020e-01
    4       -9.216259e-01
    5       -5.375388e-02
;
param X_true:=
    1        2.921709e-03
    2        1.474578e+00
    3        1.921141e+00
    4        6.068448e-01
    5        7.305137e-01
    6        1.144320e-01
    7       -1.035087e+00
    8       -2.209239e-01
    9       -1.160230e-01
   10        5.747179e-01
   11       -2.935359e+00
   12       -1.365193e+00
   13       -9.627303e-01
   14        1.012375e+00
   15       -4.334138e-01
   16       -7.280848e-01
   17        3.989757e+00
   18        1.211839e+00
   19        1.761233e+00
   20       -9.520479e-01
   21       -1.648229e+00
   22       -8.634180e-01
   23        1.983583e+00
   24        3.346346e+00
   25        6.023962e-01
   26       -4.180512e+00
   27        1.197365e+00
   28       -4.733836e-02
   29        2.117043e+00
   30        5.257745e-01
   31       -8.895787e-01
   32       -7.913059e-01
   33       -9.547639e-01
   34        2.047194e+00
   35        3.124129e-02
   36       -9.769043e-01
   37       -2.092250e+00
   38        4.436290e+00
   39        3.374681e+00
   40        1.709674e-01
   41        5.733196e-01
   42       -2.506427e-01
   43        1.011630e+00
   44        1.670262e+00
   45       -1.870858e-01
   46        1.034099e-01
   47        5.699349e-01
   48        1.236665e+00
   49        1.289821e-02
   50       -2.509075e+00
   51        4.966907e-01
   52       -2.164202e+00
   53        4.235113e-01
   54       -1.588162e+00
   55        2.142261e-01
   56       -1.929342e+00
   57       -5.184863e-02
;
param X:=
    1       -7.975973e-01
    2        2.443396e-01
    3       -4.195188e-02
    4        3.147337e-01
    5        1.884079e+00
    6        2.347223e+00
    7        4.472914e-01
    8        1.248230e-01
    9        2.177425e-01
   10       -7.065026e-01
   11       -3.604696e-01
   12       -1.365193e+00
   13        4.880070e-01
   14       -1.028507e-01
   15       -4.615392e-01
   16       -5.401944e-02
   17        2.084889e+00
   18        1.211839e+00
   19        1.738548e-01
   20       -4.495942e-01
   21       -1.093247e+00
   22       -6.449432e-01
   23        2.006820e+00
   24        1.192942e+00
   25        6.023962e-01
   26       -9.622622e-01
   27       -1.210566e+00
   28        7.530068e-01
   29        2.117043e+00
   30        6.869577e-01
   31       -1.204869e+00
   32       -1.448755e+00
   33       -3.522491e-01
   34        2.047194e+00
   35        5.473665e-01
   36       -5.002201e-02
   37       -1.075498e+00
   38        9.855981e-01
   39        3.374681e+00
   40        3.269124e-01
   41       -6.513582e-02
   42        1.538834e+00
   43        2.093852e+00
   44        1.755801e-01
   45        1.368043e+00
   46       -1.224607e+00
   47        4.646558e-01
   48        1.236665e+00
   49       -1.514281e+00
   50       -1.406015e+00
   51        8.176282e-01
   52        3.661585e-01
   53        1.176752e+00
   54       -2.371378e+00
   55       -1.532362e-01
   56       -5.145391e-02
   57        8.831008e-01
;
param outliervec:=
    1    1
    2    1
    3    1
    4    1
    5    1
    6    1
    7    1
    8    1
    9    1
   10    1
   11    1
   12    0
   13    1
   14    1
   15    1
   16    1
   17    1
   18    0
   19    1
   20    1
   21    1
   22    1
   23    1
   24    1
   25    0
   26    1
   27    1
   28    1
   29    0
   30    1
   31    1
   32    1
   33    1
   34    0
   35    1
   36    1
   37    1
   38    1
   39    0
   40    1
   41    1
   42    1
   43    1
   44    1
   45    1
   46    1
   47    1
   48    0
   49    1
   50    1
   51    1
   52    1
   53    1
   54    1
   55    1
   56    1
   57    1
; 
param greedy_time :=         3.831576e-01
;